     Program PWSCF v.6.0 (svn rev. 13079) starts on 21Jun2018 at 12:32:54

     Current dimensions of program PWSCF are:
     Max number of different atomic species (ntypx) = 10
     Max number of k-points (npk) =  40000
     Max angular momentum in pseudopotentials (lmaxx) =  3
     Message from routine setup:
     no reason to have ecutrho>4*ecutwfc

     bravais-lattice index     =            0
     lattice parameter (alat)  =       7.7479  a.u.
     unit-cell volume          =     465.1020 (a.u.)^3
     number of atoms/cell      =            4
     number of atomic types    =            1
     number of electrons       =        12.00
     number of Kohn-Sham states=           10
     kinetic-energy cutoff     =       5.0000  Ry
     charge density cutoff     =      40.0000  Ry
     convergence threshold     =      1.0E-07
     mixing beta               =       0.5000
     number of iterations used =            8  plain     mixing
     Exchange-correlation      =  SLA  PZ   NOGX NOGC ( 1  1  0  0 0 0)

     celldm(1)=   7.747877  celldm(2)=   0.000000  celldm(3)=   0.000000
     celldm(4)=   0.000000  celldm(5)=   0.000000  celldm(6)=   0.000000

     crystal axes: (cart. coord. in units of alat)
               a(1) = (   1.000000   0.000000   0.000000 )
               a(2) = (   0.000000   1.000000   0.000000 )
               a(3) = (   0.000000   0.000000   1.000000 )

     reciprocal axes: (cart. coord. in units 2 pi/alat)
               b(1) = (  1.000000  0.000000  0.000000 )
               b(2) = (  0.000000  1.000000  0.000000 )
               b(3) = (  0.000000  0.000000  1.000000 )

     PseudoPot. # 1 for Al read from file:
     /Users/simonbatzner1/QE/qe-6.0/pseudo/Al.pz-vbc.UPF
     MD5 check sum: 614279c88ff8d45c90147292d03ed420
     Pseudo is Norm-conserving, Zval =  3.0
     Generated by new atomic code, or converted to UPF format
     Using radial grid of  171 points,  2 beta functions with:
                l(1) =   0
                l(2) =   1

     atomic species   valence    mass     pseudopotential
        Al             3.00    26.98154     Al( 1.00)

     No symmetry found

   Cartesian axes

     site n.     atom                  positions (alat units)
         1           Al  tau(   1) = (  -0.0247951  -0.0184341  -0.0440854  )
         2           Al  tau(   2) = (  -0.0027268   0.4736098   0.5338390  )
         3           Al  tau(   3) = (   0.5564951  -0.0248537   0.5017854  )
         4           Al  tau(   4) = (   0.5154512   0.5414390  -0.0115561  )

     number of k points=     1  Methfessel-Paxton smearing, width (Ry)=  0.0200
                       cart. coord. in units 2pi/alat
        k(    1) = (   0.0000000   0.0000000   0.0000000), wk =   2.0000000

     Initial potential from superposition of free atoms

     starting charge   11.99177, renormalised to   12.00000
     Starting wfc are   16 randomized atomic wfcs

     Self-consistent Calculation

     iteration #  1     ecut=     5.00 Ry     beta=0.50
     Davidson diagonalization with overlap
     ethr =  1.00E-02,  avg # of iterations =  3.0

     total energy              =     -15.87850135 Ry
     Harris-Foulkes estimate   =     -15.93150449 Ry
     estimated scf accuracy    <       0.14412407 Ry

[...]

     total energy              =     -15.90698119 Ry
     Harris-Foulkes estimate   =     -15.90698122 Ry
     estimated scf accuracy    <       0.00000014 Ry

     iteration # 10     ecut=     5.00 Ry     beta=0.50
     Davidson diagonalization with overlap
     ethr =  1.16E-09,  avg # of iterations =  1.0

     End of self-consistent calculation

          k = 0.0000 0.0000 0.0000 (    81 PWs)   bands (ev):

    -2.9327   4.4563   4.5017   4.6132   6.2960   6.3127   6.3343  12.2014
    12.3807  12.4468

     the Fermi energy is     6.3694 ev

!    total energy              =     -15.90698121 Ry
     Harris-Foulkes estimate   =     -15.90698121 Ry
     estimated scf accuracy    <          8.8E-09 Ry

     The total energy is the sum of the following terms:

     one-electron contribution =      11.32889801 Ry
     hartree contribution      =       0.19225964 Ry
     xc contribution           =      -6.36582291 Ry
     ewald contribution        =     -21.04753865 Ry
     smearing contrib. (-TS)   =      -0.01477729 Ry

     convergence has been achieved in  10 iterations

     Forces acting on atoms (Ry/au):

     atom    1 type  1   force =     0.01495213    0.00217984    0.01507255
     atom    2 type  1   force =     0.00414130    0.00285495   -0.00680847
     atom    3 type  1   force =    -0.01280501    0.00215702   -0.01212244
     atom    4 type  1   force =    -0.00628842   -0.00719182    0.00385836

     Total force =     0.030804     Total SCF correction =     0.000044

     Writing output data file Al.save

     General routines

   This run was terminated on:  12:32:54  21Jun2018

   JOB DONE.