     Program PWSCF v.6.0 (svn rev. 13079) starts on 21Jun2018 at 12:33: 1

     Current dimensions of program PWSCF are:
     Max number of different atomic species (ntypx) = 10
     Max number of k-points (npk) =  40000
     Max angular momentum in pseudopotentials (lmaxx) =  3
     Message from routine setup:
     no reason to have ecutrho>4*ecutwfc

     bravais-lattice index     =            0
     lattice parameter (alat)  =       7.7479  a.u.
     unit-cell volume          =     465.1020 (a.u.)^3
     number of atoms/cell      =            4
     number of atomic types    =            1
     number of electrons       =        12.00
     number of Kohn-Sham states=           10
     kinetic-energy cutoff     =       5.0000  Ry
     charge density cutoff     =      40.0000  Ry
     convergence threshold     =      1.0E-07
     mixing beta               =       0.5000
     number of iterations used =            8  plain     mixing
     Exchange-correlation      =  SLA  PZ   NOGX NOGC ( 1  1  0  0 0 0)

     celldm(1)=   7.747877  celldm(2)=   0.000000  celldm(3)=   0.000000
     celldm(4)=   0.000000  celldm(5)=   0.000000  celldm(6)=   0.000000

     crystal axes: (cart. coord. in units of alat)
               a(1) = (   1.000000   0.000000   0.000000 )
               a(2) = (   0.000000   1.000000   0.000000 )
               a(3) = (   0.000000   0.000000   1.000000 )

     reciprocal axes: (cart. coord. in units 2 pi/alat)
               b(1) = (  1.000000  0.000000  0.000000 )
               b(2) = (  0.000000  1.000000  0.000000 )
               b(3) = (  0.000000  0.000000  1.000000 )

     PseudoPot. # 1 for Al read from file:
     /Users/simonbatzner1/QE/qe-6.0/pseudo/Al.pz-vbc.UPF
     MD5 check sum: 614279c88ff8d45c90147292d03ed420
     Pseudo is Norm-conserving, Zval =  3.0
     Generated by new atomic code, or converted to UPF format
     Using radial grid of  171 points,  2 beta functions with:
                l(1) =   0
                l(2) =   1

     atomic species   valence    mass     pseudopotential
        Al             3.00    26.98154     Al( 1.00)

     No symmetry found

   Cartesian axes

     site n.     atom                  positions (alat units)
         1           Al  tau(   1) = (  -0.0276585  -0.0270561  -0.0524195  )
         2           Al  tau(   2) = (  -0.0038122   0.4743220   0.5369317  )
         3           Al  tau(   3) = (   0.5643976  -0.0332829   0.5027780  )
         4           Al  tau(   4) = (   0.5233171   0.5502634  -0.0126610  )

     number of k points=     1  Methfessel-Paxton smearing, width (Ry)=  0.0200
                       cart. coord. in units 2pi/alat
        k(    1) = (   0.0000000   0.0000000   0.0000000), wk =   2.0000000

     Initial potential from superposition of free atoms

     starting charge   11.99177, renormalised to   12.00000
     Starting wfc are   16 randomized atomic wfcs

     Self-consistent Calculation

     iteration #  1     ecut=     5.00 Ry     beta=0.50
     Davidson diagonalization with overlap
     ethr =  1.00E-02,  avg # of iterations =  3.0

     total energy              =     -15.85397499 Ry
     Harris-Foulkes estimate   =     -15.94162654 Ry
     estimated scf accuracy    <       0.20678706 Ry

[...]

     total energy              =     -15.90232504 Ry
     Harris-Foulkes estimate   =     -15.90232506 Ry
     estimated scf accuracy    <       0.00000013 Ry

     iteration # 10     ecut=     5.00 Ry     beta=0.50
     Davidson diagonalization with overlap
     ethr =  1.06E-09,  avg # of iterations =  1.0

     End of self-consistent calculation

          k = 0.0000 0.0000 0.0000 (    81 PWs)   bands (ev):

    -2.9898   4.4210   4.4494   4.6159   6.2291   6.2557   6.2838  12.1398
    12.3212  12.3754

     the Fermi energy is     6.3116 ev

!    total energy              =     -15.90232503 Ry
     Harris-Foulkes estimate   =     -15.90232505 Ry
     estimated scf accuracy    <       0.00000004 Ry

     The total energy is the sum of the following terms:

     one-electron contribution =      11.15729742 Ry
     hartree contribution      =       0.27188351 Ry
     xc contribution           =      -6.38552216 Ry
     ewald contribution        =     -20.93136536 Ry
     smearing contrib. (-TS)   =      -0.01461845 Ry

     convergence has been achieved in  10 iterations

     Forces acting on atoms (Ry/au):

     atom    1 type  1   force =     0.02512285    0.00766213    0.02146256
     atom    2 type  1   force =     0.00663316   -0.00065228   -0.00853777
     atom    3 type  1   force =    -0.01881684    0.00434745   -0.01923970
     atom    4 type  1   force =    -0.01293917   -0.01135729    0.00631491

     Total force =     0.048448     Total SCF correction =     0.000089

     Writing output data file Al.save

     General routines

   This run was terminated on:  12:33: 1  21Jun2018

   JOB DONE.