     Program PWSCF v.6.0 (svn rev. 13079) starts on 21Jun2018 at 12:33: 9

     Current dimensions of program PWSCF are:
     Max number of different atomic species (ntypx) = 10
     Max number of k-points (npk) =  40000
     Max angular momentum in pseudopotentials (lmaxx) =  3
     Message from routine setup:
     no reason to have ecutrho>4*ecutwfc

     bravais-lattice index     =            0
     lattice parameter (alat)  =       7.7479  a.u.
     unit-cell volume          =     465.1020 (a.u.)^3
     number of atoms/cell      =            4
     number of atomic types    =            1
     number of electrons       =        12.00
     number of Kohn-Sham states=           10
     kinetic-energy cutoff     =       5.0000  Ry
     charge density cutoff     =      40.0000  Ry
     convergence threshold     =      1.0E-07
     mixing beta               =       0.5000
     number of iterations used =            8  plain     mixing
     Exchange-correlation      =  SLA  PZ   NOGX NOGC ( 1  1  0  0 0 0)

     celldm(1)=   7.747877  celldm(2)=   0.000000  celldm(3)=   0.000000
     celldm(4)=   0.000000  celldm(5)=   0.000000  celldm(6)=   0.000000

     crystal axes: (cart. coord. in units of alat)
               a(1) = (   1.000000   0.000000   0.000000 )
               a(2) = (   0.000000   1.000000   0.000000 )
               a(3) = (   0.000000   0.000000   1.000000 )

     reciprocal axes: (cart. coord. in units 2 pi/alat)
               b(1) = (  1.000000  0.000000  0.000000 )
               b(2) = (  0.000000  1.000000  0.000000 )
               b(3) = (  0.000000  0.000000  1.000000 )

     PseudoPot. # 1 for Al read from file:
     /Users/simonbatzner1/QE/qe-6.0/pseudo/Al.pz-vbc.UPF
     MD5 check sum: 614279c88ff8d45c90147292d03ed420
     Pseudo is Norm-conserving, Zval =  3.0
     Generated by new atomic code, or converted to UPF format
     Using radial grid of  171 points,  2 beta functions with:
                l(1) =   0
                l(2) =   1

     atomic species   valence    mass     pseudopotential
        Al             3.00    26.98154     Al( 1.00)

     No symmetry found

   Cartesian axes

     site n.     atom                  positions (alat units)
         1           Al  tau(   1) = (  -0.0315098  -0.0386976  -0.0636780  )
         2           Al  tau(   2) = (  -0.0052707   0.4752732   0.5410878  )
         3           Al  tau(   3) = (   0.5750780  -0.0446659   0.5041146  )
         4           Al  tau(   4) = (   0.5339415   0.5621756  -0.0141463  )

     number of k points=     1  Methfessel-Paxton smearing, width (Ry)=  0.0200
                       cart. coord. in units 2pi/alat
        k(    1) = (   0.0000000   0.0000000   0.0000000), wk =   2.0000000

     Initial potential from superposition of free atoms

     starting charge   11.99177, renormalised to   12.00000
     Starting wfc are   16 randomized atomic wfcs

     Self-consistent Calculation

     iteration #  1     ecut=     5.00 Ry     beta=0.50
     Davidson diagonalization with overlap
     ethr =  1.00E-02,  avg # of iterations =  3.0

     total energy              =     -15.81489886 Ry
     Harris-Foulkes estimate   =     -15.95616391 Ry
     estimated scf accuracy    <       0.30293616 Ry

[...]

     total energy              =     -15.89110585 Ry
     Harris-Foulkes estimate   =     -15.89110590 Ry
     estimated scf accuracy    <       0.00000018 Ry

     iteration # 10     ecut=     5.00 Ry     beta=0.50
     Davidson diagonalization with overlap
     ethr =  1.53E-09,  avg # of iterations =  1.0

     End of self-consistent calculation

          k = 0.0000 0.0000 0.0000 (    81 PWs)   bands (ev):

    -3.0821   4.3232   4.4085   4.6183   6.1164   6.1631   6.1987  12.0580
    12.2193  12.2743

     the Fermi energy is     6.2157 ev

!    total energy              =     -15.89110585 Ry
     Harris-Foulkes estimate   =     -15.89110588 Ry
     estimated scf accuracy    <       0.00000006 Ry

     The total energy is the sum of the following terms:

     one-electron contribution =      10.86351489 Ry
     hartree contribution      =       0.40946199 Ry
     xc contribution           =      -6.41920795 Ry
     ewald contribution        =     -20.73064463 Ry
     smearing contrib. (-TS)   =      -0.01423015 Ry

     convergence has been achieved in  10 iterations

     Forces acting on atoms (Ry/au):

     atom    1 type  1   force =     0.04720893    0.02128675    0.03396677
     atom    2 type  1   force =     0.01183966   -0.00930703   -0.01259287
     atom    3 type  1   force =    -0.03090931    0.00935872   -0.03313203
     atom    4 type  1   force =    -0.02813927   -0.02133845    0.01175813

     Total force =     0.088017     Total SCF correction =     0.000092

     Writing output data file Al.save

     General routines

   This run was terminated on:  12:33:10  21Jun2018

   JOB DONE.