     Program PWSCF v.6.0 (svn rev. 13079) starts on 21Jun2018 at 12:32:44

     Current dimensions of program PWSCF are:
     Max number of different atomic species (ntypx) = 10
     Max number of k-points (npk) =  40000
     Max angular momentum in pseudopotentials (lmaxx) =  3
     Message from routine setup:
     no reason to have ecutrho>4*ecutwfc

     bravais-lattice index     =            0
     lattice parameter (alat)  =       7.7479  a.u.
     unit-cell volume          =     465.1020 (a.u.)^3
     number of atoms/cell      =            4
     number of atomic types    =            1
     number of electrons       =        12.00
     number of Kohn-Sham states=           10
     kinetic-energy cutoff     =       5.0000  Ry
     charge density cutoff     =      40.0000  Ry
     convergence threshold     =      1.0E-07
     mixing beta               =       0.5000
     number of iterations used =            8  plain     mixing
     Exchange-correlation      =  SLA  PZ   NOGX NOGC ( 1  1  0  0 0 0)

     celldm(1)=   7.747877  celldm(2)=   0.000000  celldm(3)=   0.000000
     celldm(4)=   0.000000  celldm(5)=   0.000000  celldm(6)=   0.000000

     crystal axes: (cart. coord. in units of alat)
               a(1) = (   1.000000   0.000000   0.000000 )
               a(2) = (   0.000000   1.000000   0.000000 )
               a(3) = (   0.000000   0.000000   1.000000 )

     reciprocal axes: (cart. coord. in units 2 pi/alat)
               b(1) = (  1.000000  0.000000  0.000000 )
               b(2) = (  0.000000  1.000000  0.000000 )
               b(3) = (  0.000000  0.000000  1.000000 )

     PseudoPot. # 1 for Al read from file:
     /Users/simonbatzner1/QE/qe-6.0/pseudo/Al.pz-vbc.UPF
     MD5 check sum: 614279c88ff8d45c90147292d03ed420
     Pseudo is Norm-conserving, Zval =  3.0
     Generated by new atomic code, or converted to UPF format
     Using radial grid of  171 points,  2 beta functions with:
                l(1) =   0
                l(2) =   1

     atomic species   valence    mass     pseudopotential
        Al             3.00    26.98154     Al( 1.00)

     No symmetry found

   Cartesian axes

     site n.     atom                  positions (alat units)
         1           Al  tau(   1) = (  -0.0200439  -0.0041756  -0.0303195  )
         2           Al  tau(   2) = (  -0.0009244   0.4724171   0.5287000  )
         3           Al  tau(   3) = (   0.5434415  -0.0109268   0.5001317  )
         4           Al  tau(   4) = (   0.5024610   0.5268488  -0.0097195  )

     number of k points=     1  Methfessel-Paxton smearing, width (Ry)=  0.0200
                       cart. coord. in units 2pi/alat
        k(    1) = (   0.0000000   0.0000000   0.0000000), wk =   2.0000000

     Initial potential from superposition of free atoms

     starting charge   11.99177, renormalised to   12.00000
     Starting wfc are   16 randomized atomic wfcs

     Self-consistent Calculation

     iteration #  1     ecut=     5.00 Ry     beta=0.50
     Davidson diagonalization with overlap
     ethr =  1.00E-02,  avg # of iterations =  3.0

     Threshold (ethr) on eigenvalues was too large:
     Diagonalizing with lowered threshold

     Davidson diagonalization with overlap
     ethr =  7.65E-04,  avg # of iterations =  1.0

     total energy              =     -15.89867823 Ry
     Harris-Foulkes estimate   =     -15.92411791 Ry
     estimated scf accuracy    <       0.09328635 Ry

[...]

     total energy              =     -15.91087782 Ry
     Harris-Foulkes estimate   =     -15.91087816 Ry
     estimated scf accuracy    <       0.00000086 Ry

     iteration #  9     ecut=     5.00 Ry     beta=0.50
     Davidson diagonalization with overlap
     ethr =  7.14E-09,  avg # of iterations =  2.0

     End of self-consistent calculation

          k = 0.0000 0.0000 0.0000 (    81 PWs)   bands (ev):

    -2.8635   4.5005   4.5716   4.6042   6.3707   6.3843   6.3935  12.3115
    12.4475  12.5268

     the Fermi energy is     6.4378 ev

!    total energy              =     -15.91087794 Ry
     Harris-Foulkes estimate   =     -15.91087797 Ry
     estimated scf accuracy    <       0.00000008 Ry

     The total energy is the sum of the following terms:

     one-electron contribution =      11.52551995 Ry
     hartree contribution      =       0.10202289 Ry
     xc contribution           =      -6.34316228 Ry
     ewald contribution        =     -21.18037985 Ry
     smearing contrib. (-TS)   =      -0.01487864 Ry

     convergence has been achieved in   9 iterations

     Forces acting on atoms (Ry/au):

     atom    1 type  1   force =     0.00580882   -0.00176877    0.00834021
     atom    2 type  1   force =     0.00179157    0.00507900   -0.00538204
     atom    3 type  1   force =    -0.00686601    0.00025957   -0.00472675
     atom    4 type  1   force =    -0.00073438   -0.00356979    0.00176858

     Total force =     0.015823     Total SCF correction =     0.000074

     Writing output data file Al.save

     General routines

   This run was terminated on:  12:32:44  21Jun2018

   JOB DONE.